N = 6;
Q = [[[[-67.89819183  32.94909591  32.94909591  32.94909591  32.94909591
     32.94909591]
   [ 32.94909591   5.26423778   4.54466609   6.81658185   9.19341936
      4.86260567]
   [ 32.94909591   0.           0.           0.           0.
      0.        ]
   [ 32.94909591   0.           0.           0.           0.
      0.        ]
   [ 32.94909591   0.           0.           0.           0.
      0.        ]
   [ 32.94909591   0.           0.           0.           0.
      0.        ]]

  [[ 32.94909591 -65.89819183  32.94909591  32.94909591  32.94909591
     32.94909591]
   [  5.26423778  32.94909591   9.33626477   5.96576841   2.24295275
      9.1398722 ]
   [  0.          32.94909591   0.           0.           0.
      0.        ]
   [  0.          32.94909591   0.           0.           0.
      0.        ]
   [  0.          32.94909591   0.           0.           0.
      0.        ]
   [  0.          32.94909591   0.           0.           0.
      0.        ]]

  [[ 32.94909591  32.94909591 -65.89819183  32.94909591  32.94909591
     32.94909591]
   [  4.54466609   9.33626477  32.94909591   4.29189509   3.72756092
      0.62042795]
   [  0.           0.          32.94909591   0.           0.
      0.        ]
   [  0.           0.          32.94909591   0.           0.
      0.        ]
   [  0.           0.          32.94909591   0.           0.
      0.        ]
   [  0.           0.          32.94909591   0.           0.
      0.        ]]

  [[ 32.94909591  32.94909591  32.94909591 -65.89819183  32.94909591
     32.94909591]
   [  6.81658185   5.96576841   4.29189509  32.94909591   0.28345932
      0.794943  ]
   [  0.           0.           0.          32.94909591   0.
      0.        ]
   [  0.           0.           0.          32.94909591   0.
      0.        ]
   [  0.           0.           0.          32.94909591   0.
      0.        ]
   [  0.           0.           0.          32.94909591   0.
      0.        ]]

  [[ 32.94909591  32.94909591  32.94909591  32.94909591 -65.89819183
     32.94909591]
   [  9.19341936   2.24295275   3.72756092   0.28345932  32.94909591
      6.7485544 ]
   [  0.           0.           0.           0.          32.94909591
      0.        ]
   [  0.           0.           0.           0.          32.94909591
      0.        ]
   [  0.           0.           0.           0.          32.94909591
      0.        ]
   [  0.           0.           0.           0.          32.94909591
      0.        ]]

  [[ 32.94909591  32.94909591  32.94909591  32.94909591  32.94909591
    -65.89819183]
   [  4.86260567   9.1398722    0.62042795   0.794943     6.7485544
     32.94909591]
   [  0.           0.           0.           0.           0.
     32.94909591]
   [  0.           0.           0.           0.           0.
     32.94909591]
   [  0.           0.           0.           0.           0.
     32.94909591]
   [  0.           0.           0.           0.           0.
     32.94909591]]]


 [[[ 32.94909591   0.           0.           0.           0.
      0.        ]
   [-65.89819183  32.94909591  32.94909591  32.94909591  32.94909591
     32.94909591]
   [ 32.94909591   5.26423778   4.54466609   6.81658185   9.19341936
      4.86260567]
   [ 32.94909591   0.           0.           0.           0.
      0.        ]
   [ 32.94909591   0.           0.           0.           0.
      0.        ]
   [ 32.94909591   0.           0.           0.           0.
      0.        ]]

  [[  0.          32.94909591   0.           0.           0.
      0.        ]
   [ 32.94909591 -65.89819183  32.94909591  32.94909591  32.94909591
     32.94909591]
   [  5.26423778  32.94909591   9.33626477   5.96576841   2.24295275
      9.1398722 ]
   [  0.          32.94909591   0.           0.           0.
      0.        ]
   [  0.          32.94909591   0.           0.           0.
      0.        ]
   [  0.          32.94909591   0.           0.           0.
      0.        ]]

  [[  0.           0.          32.94909591   0.           0.
      0.        ]
   [ 32.94909591  32.94909591 -65.89819183  32.94909591  32.94909591
     32.94909591]
   [  4.54466609   9.33626477  32.94909591   4.29189509   3.72756092
      0.62042795]
   [  0.           0.          32.94909591   0.           0.
      0.        ]
   [  0.           0.          32.94909591   0.           0.
      0.        ]
   [  0.           0.          32.94909591   0.           0.
      0.        ]]

  [[  0.           0.           0.          32.94909591   0.
      0.        ]
   [ 32.94909591  32.94909591  32.94909591 -65.89819183  32.94909591
     32.94909591]
   [  6.81658185   5.96576841   4.29189509  32.94909591   0.28345932
      0.794943  ]
   [  0.           0.           0.          32.94909591   0.
      0.        ]
   [  0.           0.           0.          32.94909591   0.
      0.        ]
   [  0.           0.           0.          32.94909591   0.
      0.        ]]

  [[  0.           0.           0.           0.          32.94909591
      0.        ]
   [ 32.94909591  32.94909591  32.94909591  32.94909591 -65.89819183
     32.94909591]
   [  9.19341936   2.24295275   3.72756092   0.28345932  32.94909591
      6.7485544 ]
   [  0.           0.           0.           0.          32.94909591
      0.        ]
   [  0.           0.           0.           0.          32.94909591
      0.        ]
   [  0.           0.           0.           0.          32.94909591
      0.        ]]

  [[  0.           0.           0.           0.           0.
     32.94909591]
   [ 32.94909591  32.94909591  32.94909591  32.94909591  32.94909591
    -65.89819183]
   [  4.86260567   9.1398722    0.62042795   0.794943     6.7485544
     32.94909591]
   [  0.           0.           0.           0.           0.
     32.94909591]
   [  0.           0.           0.           0.           0.
     32.94909591]
   [  0.           0.           0.           0.           0.
     32.94909591]]]


 [[[ 32.94909591   0.           0.           0.           0.
      0.        ]
   [ 32.94909591   0.           0.           0.           0.
      0.        ]
   [-65.89819183  32.94909591  32.94909591  32.94909591  32.94909591
     32.94909591]
   [ 32.94909591   5.26423778   4.54466609   6.81658185   9.19341936
      4.86260567]
   [ 32.94909591   0.           0.           0.           0.
      0.        ]
   [ 32.94909591   0.           0.           0.           0.
      0.        ]]

  [[  0.          32.94909591   0.           0.           0.
      0.        ]
   [  0.          32.94909591   0.           0.           0.
      0.        ]
   [ 32.94909591 -65.89819183  32.94909591  32.94909591  32.94909591
     32.94909591]
   [  5.26423778  32.94909591   9.33626477   5.96576841   2.24295275
      9.1398722 ]
   [  0.          32.94909591   0.           0.           0.
      0.        ]
   [  0.          32.94909591   0.           0.           0.
      0.        ]]

  [[  0.           0.          32.94909591   0.           0.
      0.        ]
   [  0.           0.          32.94909591   0.           0.
      0.        ]
   [ 32.94909591  32.94909591 -65.89819183  32.94909591  32.94909591
     32.94909591]
   [  4.54466609   9.33626477  32.94909591   4.29189509   3.72756092
      0.62042795]
   [  0.           0.          32.94909591   0.           0.
      0.        ]
   [  0.           0.          32.94909591   0.           0.
      0.        ]]

  [[  0.           0.           0.          32.94909591   0.
      0.        ]
   [  0.           0.           0.          32.94909591   0.
      0.        ]
   [ 32.94909591  32.94909591  32.94909591 -65.89819183  32.94909591
     32.94909591]
   [  6.81658185   5.96576841   4.29189509  32.94909591   0.28345932
      0.794943  ]
   [  0.           0.           0.          32.94909591   0.
      0.        ]
   [  0.           0.           0.          32.94909591   0.
      0.        ]]

  [[  0.           0.           0.           0.          32.94909591
      0.        ]
   [  0.           0.           0.           0.          32.94909591
      0.        ]
   [ 32.94909591  32.94909591  32.94909591  32.94909591 -65.89819183
     32.94909591]
   [  9.19341936   2.24295275   3.72756092   0.28345932  32.94909591
      6.7485544 ]
   [  0.           0.           0.           0.          32.94909591
      0.        ]
   [  0.           0.           0.           0.          32.94909591
      0.        ]]

  [[  0.           0.           0.           0.           0.
     32.94909591]
   [  0.           0.           0.           0.           0.
     32.94909591]
   [ 32.94909591  32.94909591  32.94909591  32.94909591  32.94909591
    -65.89819183]
   [  4.86260567   9.1398722    0.62042795   0.794943     6.7485544
     32.94909591]
   [  0.           0.           0.           0.           0.
     32.94909591]
   [  0.           0.           0.           0.           0.
     32.94909591]]]


 [[[ 32.94909591   0.           0.           0.           0.
      0.        ]
   [ 32.94909591   0.           0.           0.           0.
      0.        ]
   [ 32.94909591   0.           0.           0.           0.
      0.        ]
   [-65.89819183  32.94909591  32.94909591  32.94909591  32.94909591
     32.94909591]
   [ 32.94909591   5.26423778   4.54466609   6.81658185   9.19341936
      4.86260567]
   [ 32.94909591   0.           0.           0.           0.
      0.        ]]

  [[  0.          32.94909591   0.           0.           0.
      0.        ]
   [  0.          32.94909591   0.           0.           0.
      0.        ]
   [  0.          32.94909591   0.           0.           0.
      0.        ]
   [ 32.94909591 -65.89819183  32.94909591  32.94909591  32.94909591
     32.94909591]
   [  5.26423778  32.94909591   9.33626477   5.96576841   2.24295275
      9.1398722 ]
   [  0.          32.94909591   0.           0.           0.
      0.        ]]

  [[  0.           0.          32.94909591   0.           0.
      0.        ]
   [  0.           0.          32.94909591   0.           0.
      0.        ]
   [  0.           0.          32.94909591   0.           0.
      0.        ]
   [ 32.94909591  32.94909591 -65.89819183  32.94909591  32.94909591
     32.94909591]
   [  4.54466609   9.33626477  32.94909591   4.29189509   3.72756092
      0.62042795]
   [  0.           0.          32.94909591   0.           0.
      0.        ]]

  [[  0.           0.           0.          32.94909591   0.
      0.        ]
   [  0.           0.           0.          32.94909591   0.
      0.        ]
   [  0.           0.           0.          32.94909591   0.
      0.        ]
   [ 32.94909591  32.94909591  32.94909591 -65.89819183  32.94909591
     32.94909591]
   [  6.81658185   5.96576841   4.29189509  32.94909591   0.28345932
      0.794943  ]
   [  0.           0.           0.          32.94909591   0.
      0.        ]]

  [[  0.           0.           0.           0.          32.94909591
      0.        ]
   [  0.           0.           0.           0.          32.94909591
      0.        ]
   [  0.           0.           0.           0.          32.94909591
      0.        ]
   [ 32.94909591  32.94909591  32.94909591  32.94909591 -65.89819183
     32.94909591]
   [  9.19341936   2.24295275   3.72756092   0.28345932  32.94909591
      6.7485544 ]
   [  0.           0.           0.           0.          32.94909591
      0.        ]]

  [[  0.           0.           0.           0.           0.
     32.94909591]
   [  0.           0.           0.           0.           0.
     32.94909591]
   [  0.           0.           0.           0.           0.
     32.94909591]
   [ 32.94909591  32.94909591  32.94909591  32.94909591  32.94909591
    -65.89819183]
   [  4.86260567   9.1398722    0.62042795   0.794943     6.7485544
     32.94909591]
   [  0.           0.           0.           0.           0.
     32.94909591]]]


 [[[ 32.94909591   0.           0.           0.           0.
      0.        ]
   [ 32.94909591   0.           0.           0.           0.
      0.        ]
   [ 32.94909591   0.           0.           0.           0.
      0.        ]
   [ 32.94909591   0.           0.           0.           0.
      0.        ]
   [-65.89819183  32.94909591  32.94909591  32.94909591  32.94909591
     32.94909591]
   [ 32.94909591   5.26423778   4.54466609   6.81658185   9.19341936
      4.86260567]]

  [[  0.          32.94909591   0.           0.           0.
      0.        ]
   [  0.          32.94909591   0.           0.           0.
      0.        ]
   [  0.          32.94909591   0.           0.           0.
      0.        ]
   [  0.          32.94909591   0.           0.           0.
      0.        ]
   [ 32.94909591 -65.89819183  32.94909591  32.94909591  32.94909591
     32.94909591]
   [  5.26423778  32.94909591   9.33626477   5.96576841   2.24295275
      9.1398722 ]]

  [[  0.           0.          32.94909591   0.           0.
      0.        ]
   [  0.           0.          32.94909591   0.           0.
      0.        ]
   [  0.           0.          32.94909591   0.           0.
      0.        ]
   [  0.           0.          32.94909591   0.           0.
      0.        ]
   [ 32.94909591  32.94909591 -65.89819183  32.94909591  32.94909591
     32.94909591]
   [  4.54466609   9.33626477  32.94909591   4.29189509   3.72756092
      0.62042795]]

  [[  0.           0.           0.          32.94909591   0.
      0.        ]
   [  0.           0.           0.          32.94909591   0.
      0.        ]
   [  0.           0.           0.          32.94909591   0.
      0.        ]
   [  0.           0.           0.          32.94909591   0.
      0.        ]
   [ 32.94909591  32.94909591  32.94909591 -65.89819183  32.94909591
     32.94909591]
   [  6.81658185   5.96576841   4.29189509  32.94909591   0.28345932
      0.794943  ]]

  [[  0.           0.           0.           0.          32.94909591
      0.        ]
   [  0.           0.           0.           0.          32.94909591
      0.        ]
   [  0.           0.           0.           0.          32.94909591
      0.        ]
   [  0.           0.           0.           0.          32.94909591
      0.        ]
   [ 32.94909591  32.94909591  32.94909591  32.94909591 -65.89819183
     32.94909591]
   [  9.19341936   2.24295275   3.72756092   0.28345932  32.94909591
      6.7485544 ]]

  [[  0.           0.           0.           0.           0.
     32.94909591]
   [  0.           0.           0.           0.           0.
     32.94909591]
   [  0.           0.           0.           0.           0.
     32.94909591]
   [  0.           0.           0.           0.           0.
     32.94909591]
   [ 32.94909591  32.94909591  32.94909591  32.94909591  32.94909591
    -65.89819183]
   [  4.86260567   9.1398722    0.62042795   0.794943     6.7485544
     32.94909591]]]


 [[[ 32.94909591   5.26423778   4.54466609   6.81658185   9.19341936
      4.86260567]
   [ 32.94909591   0.           0.           0.           0.
      0.        ]
   [ 32.94909591   0.           0.           0.           0.
      0.        ]
   [ 32.94909591   0.           0.           0.           0.
      0.        ]
   [ 32.94909591   0.           0.           0.           0.
      0.        ]
   [-65.89819183  32.94909591  32.94909591  32.94909591  32.94909591
     32.94909591]]

  [[  5.26423778  32.94909591   9.33626477   5.96576841   2.24295275
      9.1398722 ]
   [  0.          32.94909591   0.           0.           0.
      0.        ]
   [  0.          32.94909591   0.           0.           0.
      0.        ]
   [  0.          32.94909591   0.           0.           0.
      0.        ]
   [  0.          32.94909591   0.           0.           0.
      0.        ]
   [ 32.94909591 -65.89819183  32.94909591  32.94909591  32.94909591
     32.94909591]]

  [[  4.54466609   9.33626477  32.94909591   4.29189509   3.72756092
      0.62042795]
   [  0.           0.          32.94909591   0.           0.
      0.        ]
   [  0.           0.          32.94909591   0.           0.
      0.        ]
   [  0.           0.          32.94909591   0.           0.
      0.        ]
   [  0.           0.          32.94909591   0.           0.
      0.        ]
   [ 32.94909591  32.94909591 -65.89819183  32.94909591  32.94909591
     32.94909591]]

  [[  6.81658185   5.96576841   4.29189509  32.94909591   0.28345932
      0.794943  ]
   [  0.           0.           0.          32.94909591   0.
      0.        ]
   [  0.           0.           0.          32.94909591   0.
      0.        ]
   [  0.           0.           0.          32.94909591   0.
      0.        ]
   [  0.           0.           0.          32.94909591   0.
      0.        ]
   [ 32.94909591  32.94909591  32.94909591 -65.89819183  32.94909591
     32.94909591]]

  [[  9.19341936   2.24295275   3.72756092   0.28345932  32.94909591
      6.7485544 ]
   [  0.           0.           0.           0.          32.94909591
      0.        ]
   [  0.           0.           0.           0.          32.94909591
      0.        ]
   [  0.           0.           0.           0.          32.94909591
      0.        ]
   [  0.           0.           0.           0.          32.94909591
      0.        ]
   [ 32.94909591  32.94909591  32.94909591  32.94909591 -65.89819183
     32.94909591]]

  [[  4.86260567   9.1398722    0.62042795   0.794943     6.7485544
     32.94909591]
   [  0.           0.           0.           0.           0.
     32.94909591]
   [  0.           0.           0.           0.           0.
     32.94909591]
   [  0.           0.           0.           0.           0.
     32.94909591]
   [  0.           0.           0.           0.           0.
     32.94909591]
   [ 32.94909591  32.94909591  32.94909591  32.94909591  32.94909591
    -65.89819183]]]];
C = 397.38915095041847;
// The indices of the 4-tensor Q are (time,node, time,node). It is to be contracted with boolean variables x with indices (time,node). To unfold it and write everything in standard matrix formulation, use np.reshape(Q,(N**2,N**2) and np.reshape(x,N**2).